50
8715

919 688
479 872
86 454
408 999
21 921
77 434
304 220
487 570
685 847
629 687
75 433
65 693
791 298
539 402
834 76
370 90
686 566
75 868
110 402
585 95
351 479
711 381
900 158
873 345
288 325
512 866
411 391
417 932
820 94
204 156
683 414
932 409
274 494
593 342
330 762
393 493
153 31
9 598
654 387
156 547
719 933
631 816
706 677
754 165
264 780
820 61
644 176
849 327
681 882
10 946
